language Essence 1.3

letting class be function(1 --> 1, 2 --> 2, 3 --> 1, 4 --> 2, 5 --> 2, 6 --> 1, 7 --> 2, 8 --> 2)
letting deck_length be 9
letting deck_width be 50
letting length be function(1 --> 3, 2 --> 4, 3 --> 1, 4 --> 2, 5 --> 2, 6 --> 4, 7 --> 1, 8 --> 5)
letting n_classes be 2
letting n_containers be 8
letting separation be function({1, 2} --> 35)
letting width be function(1 --> 4, 2 --> 6, 3 --> 1, 4 --> 5, 5 --> 1, 6 --> 5, 7 --> 1, 8 --> 21)
